matrix = [|
  14, 11, 26, 8, 27, 17, 12, 4, 5, 6, 0, 0, 0, 0, 0, 0, 0, 0, 0, 0, 0, 0, 0, 0, 0, 0, 0, 0, 0, 0, 0, 0, 0, 0, 0 |
  25, 29, 3, 27, 26, 23, 18, 9, 12, 13, 19, 4, 0, 0, 0, 0, 0, 0, 0, 0, 0, 0, 0, 0, 0, 0, 0, 0, 0, 0, 0, 0, 0, 0, 0 |
  18, 34, 20, 3, 13, 33, 29, 31, 4, 16, 30, 1, 19, 0, 0, 0, 0, 0, 0, 0, 0, 0, 0, 0, 0, 0, 0, 0, 0, 0, 0, 0, 0, 0, 0 |
  24, 4, 15, 31, 8, 27, 3, 18, 11, 5, 30, 25, 16, 17, 19, 0, 0, 0, 0, 0, 0, 0, 0, 0, 0, 0, 0, 0, 0, 0, 0, 0, 0, 0, 0 |
  5, 3, 32, 16, 6, 25, 19, 4, 12, 2, 1, 13, 22, 20, 0, 0, 0, 0, 0, 0, 0, 0, 0, 0, 0, 0, 0, 0, 0, 0, 0, 0, 0, 0, 0 |
  35, 4, 25, 2, 9, 12, 20, 15, 10, 8, 26, 0, 0, 0, 0, 0, 0, 0, 0, 0, 0, 0, 0, 0, 0, 0, 0, 0, 0, 0, 0, 0, 0, 0, 0 |
  29, 25, 30, 11, 16, 20, 2, 34, 12, 24, 13, 4, 3, 33, 8, 31, 18, 32, 0, 0, 0, 0, 0, 0, 0, 0, 0, 0, 0, 0, 0, 0, 0, 0, 0 |
  3, 35, 14, 27, 6, 28, 17, 22, 11, 30, 1, 19, 33, 26, 34, 24, 4, 0, 0, 0, 0, 0, 0, 0, 0, 0, 0, 0, 0, 0, 0, 0, 0, 0, 0 |
  1, 22, 18, 24, 11, 30, 32, 13, 16, 8, 2, 0, 0, 0, 0, 0, 0, 0, 0, 0, 0, 0, 0, 0, 0, 0, 0, 0, 0, 0, 0, 0, 0, 0, 0 |
  29, 26, 8, 31, 17, 22, 4, 6, 27, 16, 2, 33, 5, 14, 0, 0, 0, 0, 0, 0, 0, 0, 0, 0, 0, 0, 0, 0, 0, 0, 0, 0, 0, 0, 0 |
  15, 25, 23, 1, 19, 4, 6, 8, 32, 26, 11, 31, 24, 16, 10, 29, 12, 0, 0, 0, 0, 0, 0, 0, 0, 0, 0, 0, 0, 0, 0, 0, 0, 0, 0 |
  4, 19, 25, 24, 23, 1, 18, 0, 0, 0, 0, 0, 0, 0, 0, 0, 0, 0, 0, 0, 0, 0, 0, 0, 0, 0, 0, 0, 0, 0, 0, 0, 0, 0, 0 |
  33, 31, 12, 32, 10, 17, 11, 30, 20, 1, 24, 3, 22, 16, 6, 13, 0, 0, 0, 0, 0, 0, 0, 0, 0, 0, 0, 0, 0, 0, 0, 0, 0, 0, 0 |
  2, 28, 29, 19, 22, 34, 1, 6, 27, 26, 23, 33, 20, 7, 18, 9, 0, 0, 0, 0, 0, 0, 0, 0, 0, 0, 0, 0, 0, 0, 0, 0, 0, 0, 0 |
  19, 8, 17, 10, 15, 11, 4, 13, 6, 22, 31, 20, 18, 23, 32, 1, 34, 26, 0, 0, 0, 0, 0, 0, 0, 0, 0, 0, 0, 0, 0, 0, 0, 0, 0 |
  2, 13, 10, 19, 8, 1, 6, 0, 0, 0, 0, 0, 0, 0, 0, 0, 0, 0, 0, 0, 0, 0, 0, 0, 0, 0, 0, 0, 0, 0, 0, 0, 0, 0, 0 |
  24, 18, 13, 10, 9, 5, 3, 34, 0, 0, 0, 0, 0, 0, 0, 0, 0, 0, 0, 0, 0, 0, 0, 0, 0, 0, 0, 0, 0, 0, 0, 0, 0, 0, 0 |
  11, 5, 31, 14, 32, 9, 25, 19, 18, 29, 24, 16, 17, 27, 30, 21, 4, 1, 22, 10, 6, 0, 0, 0, 0, 0, 0, 0, 0, 0, 0, 0, 0, 0, 0 |
  12, 20, 32, 29, 18, 13, 5, 24, 33, 0, 0, 0, 0, 0, 0, 0, 0, 0, 0, 0, 0, 0, 0, 0, 0, 0, 0, 0, 0, 0, 0, 0, 0, 0, 0 |
  20, 18, 33, 17, 4, 32, 34, 11, 0, 0, 0, 0, 0, 0, 0, 0, 0, 0, 0, 0, 0, 0, 0, 0, 0, 0, 0, 0, 0, 0, 0, 0, 0, 0, 0 |
  20, 26, 18, 27, 11, 24, 1, 5, 19, 9, 0, 0, 0, 0, 0, 0, 0, 0, 0, 0, 0, 0, 0, 0, 0, 0, 0, 0, 0, 0, 0, 0, 0, 0, 0 |
  22, 18, 11, 4, 12, 17, 19, 26, 25, 10, 31, 34, 27, 3, 30, 24, 5, 9, 1, 15, 33, 0, 0, 0, 0, 0, 0, 0, 0, 0, 0, 0, 0, 0, 0 |
  26, 4, 3, 19, 1, 34, 33, 6, 8, 13, 0, 0, 0, 0, 0, 0, 0, 0, 0, 0, 0, 0, 0, 0, 0, 0, 0, 0, 0, 0, 0, 0, 0, 0, 0 |
  31, 25, 27, 8, 4, 24, 5, 30, 3, 16, 22, 10, 23, 34, 6, 20, 15, 9, 17, 1, 19, 0, 0, 0, 0, 0, 0, 0, 0, 0, 0, 0, 0, 0, 0 |
  3, 32, 30, 25, 13, 20, 12, 24, 33, 34, 23, 11, 22, 17, 18, 16, 1, 8, 15, 0, 0, 0, 0, 0, 0, 0, 0, 0, 0, 0, 0, 0, 0, 0, 0 |
  19, 30, 12, 8, 18, 23, 17, 1, 9, 20, 28, 22, 33, 6, 16, 0, 0, 0, 0, 0, 0, 0, 0, 0, 0, 0, 0, 0, 0, 0, 0, 0, 0, 0, 0 |
  31, 11, 12, 17, 9, 10, 18, 30, 8, 22, 6, 32, 4, 0, 0, 0, 0, 0, 0, 0, 0, 0, 0, 0, 0, 0, 0, 0, 0, 0, 0, 0, 0, 0, 0 |
  27, 12, 23, 5, 16, 30, 13, 0, 0, 0, 0, 0, 0, 0, 0, 0, 0, 0, 0, 0, 0, 0, 0, 0, 0, 0, 0, 0, 0, 0, 0, 0, 0, 0, 0 |
  28, 16, 17, 30, 21, 14, 10, 18, 22, 1, 2, 7, 5, 8, 4, 23, 11, 13, 6, 35, 0, 0, 0, 0, 0, 0, 0, 0, 0, 0, 0, 0, 0, 0, 0 |
  17, 6, 31, 27, 10, 32, 34, 24, 16, 15, 26, 8, 12, 0, 0, 0, 0, 0, 0, 0, 0, 0, 0, 0, 0, 0, 0, 0, 0, 0, 0, 0, 0, 0, 0 |
  13, 9, 29, 26, 33, 1, 19, 31, 20, 24, 8, 30, 15, 34, 17, 4, 23, 3, 5, 12, 0, 0, 0, 0, 0, 0, 0, 0, 0, 0, 0, 0, 0, 0, 0 |
  6, 9, 31, 5, 27, 12, 2, 3, 18, 16, 20, 34, 25, 24, 8, 10, 1, 17, 0, 0, 0, 0, 0, 0, 0, 0, 0, 0, 0, 0, 0, 0, 0, 0, 0 |
  21, 29, 12, 27, 19, 31, 24, 0, 0, 0, 0, 0, 0, 0, 0, 0, 0, 0, 0, 0, 0, 0, 0, 0, 0, 0, 0, 0, 0, 0, 0, 0, 0, 0, 0 |
  9, 31, 16, 27, 13, 5, 1, 6, 8, 11, 25, 33, 12, 3, 18, 23, 19, 0, 0, 0, 0, 0, 0, 0, 0, 0, 0, 0, 0, 0, 0, 0, 0, 0, 0 |
  3, 16, 22, 9, 29, 34, 31, 8, 19, 26, 0, 0, 0, 0, 0, 0, 0, 0, 0, 0, 0, 0, 0, 0, 0, 0, 0, 0, 0, 0, 0, 0, 0, 0, 0 |
  12, 13, 17, 2, 11, 26, 28, 33, 3, 31, 1, 16, 0, 0, 0, 0, 0, 0, 0, 0, 0, 0, 0, 0, 0, 0, 0, 0, 0, 0, 0, 0, 0, 0, 0 |
  29, 17, 33, 23, 5, 30, 19, 8, 18, 12, 4, 15, 10, 6, 9, 3, 34, 27, 26, 11, 25, 0, 0, 0, 0, 0, 0, 0, 0, 0, 0, 0, 0, 0, 0 |
  27, 24, 10, 19, 32, 25, 3, 13, 11, 31, 33, 12, 18, 6, 34, 22, 0, 0, 0, 0, 0, 0, 0, 0, 0, 0, 0, 0, 0, 0, 0, 0, 0, 0, 0 |
  33, 26, 29, 19, 16, 12, 4, 32, 1, 13, 30, 5, 0, 0, 0, 0, 0, 0, 0, 0, 0, 0, 0, 0, 0, 0, 0, 0, 0, 0, 0, 0, 0, 0, 0 |
  11, 31, 2, 27, 33, 34, 29, 19, 20, 24, 5, 1, 16, 8, 0, 0, 0, 0, 0, 0, 0, 0, 0, 0, 0, 0, 0, 0, 0, 0, 0, 0, 0, 0, 0 |
|];
